10
1 2
2 1
3 5
4 4
5 4
6 3
7 2
8 9
9 2
24
0 1 76
1 0 76
0 2 55
2 0 55
0 3 5
3 0 5
0 4 4
4 0 4
0 5 12
5 0 12
0 6 28
6 0 28
0 7 30
7 0 30
0 8 65
8 0 65
0 9 78
9 0 78
1 8 1
1 9 21
2 6 44
3 9 11
4 6 80
4 7 47
